p cnf 14 64
-1 -2 -4 14 0
-3 -4 7 10 0
4 -6 -10 14 0
-2 6 10 -14 0
1 5 11 12 0
1 -6 11 -14 0
-1 -3 8 -13 0
-1 2 -6 -10 0
-6 7 -8 -13 0
-4 -6 -7 9 0
-2 6 -9 -13 0
-9 -12 13 -14 0
-2 3 6 7 0
-1 4 5 9 0
1 5 7 13 0
-3 9 12 -14 0
-2 -4 12 -13 0
-1 -9 -10 11 0
7 9 -10 -11 0
3 -6 -10 -13 0
-1 -2 -7 -13 0
1 -2 -6 12 0
-2 8 11 12 0
2 -3 -12 -13 0
1 4 8 13 0
1 7 -8 12 0
1 3 4 11 0
-7 10 13 -14 0
-2 -3 6 -13 0
1 2 -3 14 0
-1 -3 -6 14 0
-2 -3 -9 -10 0
1 3 -4 9 0
-10 -11 -12 -13 0
-4 5 -10 12 0
1 -2 5 -6 0
-5 -9 -13 14 0
-4 7 -8 10 0
3 4 -8 -9 0
5 -6 9 -10 0
6 7 -8 -12 0
-1 -6 -10 -11 0
5 -7 -10 -11 0
-7 -8 -9 -10 0
1 -6 7 -13 0
-2 -3 11 14 0
-1 -2 6 9 0
-3 6 -9 11 0
-1 7 8 9 0
3 -8 10 -12 0
6 -7 -9 11 0
-6 8 10 -14 0
-4 8 9 -13 0
-2 6 -7 -8 0
-6 8 -12 -14 0
2 8 -12 -14 0
-4 7 8 -11 0
4 -5 8 -9 0
-1 -3 7 -12 0
7 -12 -13 14 0
1 5 7 11 0
-2 -5 6 13 0
-4 -7 8 14 0
3 -6 13 14 0
